400 50
0 0
223 0
0 250
90 250
90 338
113 0
0 142
144 338
90 280
29 250
223 172
174 338
144 368
77 142
90 308
62 250
77 187
202 338
90 290
39 0
29 323
120 338
120 379
98 187
90 263
186 338
113 136
49 323
77 225
128 379
77 210
16 0
39 98
164 280
77 218
182 338
90 297
74 250
29 367
193 338
0 180
71 98
113 195
210 338
144 384
147 263
90 293
135 280
29 282
178 195
